p cnf 438
-12 -118
-13 -121
-14 -124
-15 -127
-16 -130
-17 -133
-18 -136
-19 -139
-20 -142
-21 -145
-22 -148
-23 -150
-24 -152
-25 -154
-26 -156
-27 -158
-28 -160
-29 -162
-30 -164
-31 -166
-32 -168
-33 -170
-34 171
-35 -20
-35 22
20 -22 35
-36 20
-36 -22
-20 22 36
-37 -35
-37 -36
35 36 37
-38 -1
-38 -2
1 2 38
-39 -3
-39 -4
3 4 39
-40 -5
-40 -6
5 6 40
-41 -7
-41 -8
7 8 41
-42 -9
-42 -10
9 10 42
-43 38
-43 39
-38 -39 43
-44 40
-44 41
-40 -41 44
-45 -11
-45 42
11 -42 45
-46 43
-46 44
-43 -44 46
-47 45
-47 46
-45 -46 47
-48 -23
-48 -24
23 24 48
-49 -25
-49 -26
25 26 49
-50 -27
-50 -28
27 28 50
-51 -29
-51 -30
29 30 51
-52 -31
-52 -32
31 32 52
-53 48
-53 49
-48 -49 53
-54 50
-54 51
-50 -51 54
-55 -33
-55 52
33 -52 55
-56 53
-56 54
-53 -54 56
-57 55
-57 56
-55 -56 57
-58 23
-58 -37
-23 37 58
-59 -23
-59 37
23 -37 59
-60 -58
-60 -59
58 59 60
-61 12
-61 24
-12 -24 61
-62 -12
-62 -24
12 24 62
-63 -61
-63 -62
61 62 63
-64 13
-64 25
-13 -25 64
-65 -13
-65 -25
13 25 65
-66 -64
-66 -65
64 65 66
-67 14
-67 26
-14 -26 67
-68 -14
-68 -26
14 26 68
-69 -67
-69 -68
67 68 69
-70 15
-70 27
-15 -27 70
-71 -15
-71 -27
15 27 71
-72 -70
-72 -71
70 71 72
-73 16
-73 28
-16 -28 73
-74 -16
-74 -28
16 28 74
-75 -73
-75 -74
73 74 75
-76 17
-76 29
-17 -29 76
-77 -17
-77 -29
17 29 77
-78 -76
-78 -77
76 77 78
-79 18
-79 30
-18 -30 79
-80 -18
-80 -30
18 30 80
-81 -79
-81 -80
79 80 81
-82 19
-82 31
-19 -31 82
-83 -19
-83 -31
19 31 83
-84 -82
-84 -83
82 83 84
-85 20
-85 32
-20 -32 85
-86 -20
-86 -32
20 32 86
-87 -85
-87 -86
85 86 87
-88 21
-88 33
-21 -33 88
-89 -21
-89 -33
21 33 89
-90 -88
-90 -89
88 89 90
-91 -60
-91 -63
60 63 91
-92 -66
-92 -69
66 69 92
-93 -72
-93 -75
72 75 93
-94 -78
-94 -81
78 81 94
-95 -84
-95 -87
84 87 95
-96 91
-96 92
-91 -92 96
-97 93
-97 94
-93 -94 97
-98 -90
-98 95
90 -95 98
-99 96
-99 97
-96 -97 99
-100 98
-100 99
-98 -99 100
-101 -57
-101 100
57 -100 101
-102 34
-102 101
-34 -101 102
-103 47
-103 102
-47 -102 103
-104 -12
-104 37
12 -37 104
-105 -13
-105 -14
13 14 105
-106 -15
-106 -16
15 16 106
-107 -17
-107 -18
17 18 107
-108 -19
-108 -20
19 20 108
-109 104
-109 105
-104 -105 109
-110 106
-110 107
-106 -107 110
-111 -21
-111 108
21 -108 111
-112 109
-112 110
-109 -110 112
-113 111
-113 112
-111 -112 113
-114 -57
-114 113
57 -113 114
-115 47
-115 -101
-47 101 115
-116 1
-116 -47
-1 47 116
-117 -37
-117 47
37 -47 117
-118 -116
-118 -117
116 117 118
-119 2
-119 -47
-2 47 119
-120 12
-120 47
-12 -47 120
-121 -119
-121 -120
119 120 121
-122 3
-122 -47
-3 47 122
-123 13
-123 47
-13 -47 123
-124 -122
-124 -123
122 123 124
-125 4
-125 -47
-4 47 125
-126 14
-126 47
-14 -47 126
-127 -125
-127 -126
125 126 127
-128 5
-128 -47
-5 47 128
-129 15
-129 47
-15 -47 129
-130 -128
-130 -129
128 129 130
-131 6
-131 -47
-6 47 131
-132 16
-132 47
-16 -47 132
-133 -131
-133 -132
131 132 133
-134 7
-134 -47
-7 47 134
-135 17
-135 47
-17 -47 135
-136 -134
-136 -135
134 135 136
-137 8
-137 -47
-8 47 137
-138 18
-138 47
-18 -47 138
-139 -137
-139 -138
137 138 139
-140 9
-140 -47
-9 47 140
-141 19
-141 47
-19 -47 141
-142 -140
-142 -141
140 141 142
-143 10
-143 -47
-10 47 143
-144 20
-144 47
-20 -47 144
-145 -143
-145 -144
143 144 145
-146 11
-146 -47
-11 47 146
-147 21
-147 47
-21 -47 147
-148 -146
-148 -147
146 147 148
-149 23
-149 47
-23 -47 149
-150 -116
-150 -149
116 149 150
-151 24
-151 47
-24 -47 151
-152 -119
-152 -151
119 151 152
-153 25
-153 47
-25 -47 153
-154 -122
-154 -153
122 153 154
-155 26
-155 47
-26 -47 155
-156 -125
-156 -155
125 155 156
-157 27
-157 47
-27 -47 157
-158 -128
-158 -157
128 157 158
-159 28
-159 47
-28 -47 159
-160 -131
-160 -159
131 159 160
-161 29
-161 47
-29 -47 161
-162 -134
-162 -161
134 161 162
-163 30
-163 47
-30 -47 163
-164 -137
-164 -163
137 163 164
-165 31
-165 47
-31 -47 165
-166 -140
-166 -165
140 165 166
-167 32
-167 47
-32 -47 167
-168 -143
-168 -167
143 167 168
-169 33
-169 47
-33 -47 169
-170 -146
-170 -169
146 169 170
-171 -34
-171 115
34 -115 171
-172 -103
-172 -114
103 114 172
-172
